Gurobi 12.0.1:   lim:time = 14400
  mip:bestbound = 1
Set parameter LogToConsole to value 1
  tech:outlev = 1
Set parameter Cuts to value 3
  cut:cuts = 3
Set parameter Presolve to value 2
  pre:solve = 2
Set parameter MIPFocus to value 2
  mip:focus = 2
Set parameter Symmetry to value 2
  mip:symmetry = 2
Set parameter InfUnbdInfo to value 1
Gurobi Optimizer version 12.0.1 build v12.0.1rc0 (win64 - Windows 11.0 (26100.2))

CPU model: Intel(R) Core(TM) i7-10700 CPU @ 2.90GHz, instruction set [SSE2|AVX|AVX2]
Thread count: 8 physical cores, 16 logical processors, using up to 16 threads

Non-default parameters:
TimeLimit  14400
MIPFocus  2
Symmetry  2
Cuts  3
InfUnbdInfo  1
Presolve  2

Optimize a model with 358 rows, 697 columns and 3926 nonzeros
Model fingerprint: 0xe65afd96
Model has 4 quadratic objective terms
Model has 7 quadratic constraints
Variable types: 36 continuous, 661 integer (0 binary)
Coefficient statistics:
  Matrix range     [1e+00, 1e+05]
  QMatrix range    [1e+00, 1e+00]
  QLMatrix range   [1e+00, 1e+01]
  Objective range  [3e+00, 1e+02]
  QObjective range [2e+00, 2e+00]
  Bounds range     [1e+00, 1e+02]
  RHS range        [1e+00, 1e+05]
  QRHS range       [1e+02, 1e+02]
Presolve removed 24 rows and 60 columns
Presolve time: 0.18s
Presolved: 741 rows, 1031 columns, 6220 nonzeros
Variable types: 177 continuous, 854 integer (767 binary)
Found heuristic solution: objective 554.2900000
Root relaxation presolve removed 21 rows and 4 columns
Root relaxation presolved: 558 rows, 867 columns, 9358 nonzeros


Root relaxation: objective 7.194842e+01, 113 iterations, 0.01 seconds (0.01 work units)

    Nodes    |    Current Node    |     Objective Bounds      |     Work
 Expl Unexpl |  Obj  Depth IntInf | Incumbent    BestBd   Gap | It/Node Time

     0     0   71.94842    0   38  554.29000   71.94842  87.0%     -    0s
H    0     0                     419.2300000   71.94842  82.8%     -    0s
H    0     0                     362.1300000   71.94842  80.1%     -    0s
     0     0   91.38161    0   38  362.13000   91.38161  74.8%     -    0s
H    0     0                     246.5000000   96.95153  60.7%     -    0s
H    0     0                     246.0000000   96.95153  60.6%     -    0s
H    0     0                     243.0100000   96.95153  60.1%     -    0s
     0     0   96.95153    0   39  243.01000   96.95153  60.1%     -    0s
     0     0   97.90333    0   42  243.01000   97.90333  59.7%     -    0s
H    0     0                     238.9200000  115.41462  51.7%     -    0s
     0     0  115.41462    0   13  238.92000  115.41462  51.7%     -    0s
     0     0  115.53306    0   13  238.92000  115.53306  51.6%     -    0s
H    0     0                     224.3300000  116.52974  48.1%     -    0s
H    0     0                     209.6000000  116.52974  44.4%     -    0s
     0     0  116.52974    0   23  209.60000  116.52974  44.4%     -    0s
H    0     0                     209.5500000  116.66000  44.3%     -    0s
     0     0  116.66000    0   23  209.55000  116.66000  44.3%     -    0s
     0     2  116.66000    0   23  209.55000  116.66000  44.3%     -    0s
H  818   504                     208.4000000  116.66000  44.0%   9.9    1s
H 1313   637                     208.1300000  116.66000  43.9%  11.2    1s
H 1663   715                     207.6900000  116.66000  43.8%  11.8    1s
H 2047   789                     202.3700000  116.66000  42.4%  12.3    1s
* 3553   913              23     202.1600000  134.42000  33.5%  12.8    1s
H 5863   603                     201.1000000  170.98028  15.0%  12.4    2s

Cutting planes:
  Learned: 16
  Gomory: 33
  Lift-and-project: 9
  Cover: 25
  Implied bound: 45
  Projected implied bound: 7
  Clique: 2
  MIR: 87
  StrongCG: 6
  Flow cover: 267
  Inf proof: 15
  Zero half: 84
  RLT: 90
  Relax-and-lift: 63

Explored 9209 nodes (108072 simplex iterations) in 3.53 seconds (3.13 work units)
Thread count was 16 (of 16 available processors)

Solution count 10: 201.1 202.16 202.37 ... 238.92

Optimal solution found (tolerance 1.00e-04)
Best objective 2.011000000000e+02, best bound 2.011000000000e+02, gap 0.0000%

AMPL MP initial flat model has 697 variables (0 integer, 661 binary);
Objectives: 1 quadratic; 
Constraints:  358 linear; 7 quadratic;

AMPL MP final model has 697 variables (0 integer, 661 binary);
Objectives: 1 quadratic; 
Constraints:  358 linear; 7 quadratic;


-----RESULTS INFO-----
running_time:  3.6719999999999997
TC.best_bound:  201.1
TC:  201.1
MIP Gap (%):  0
=== Vehicle Routes ===
Vehicle 1: 0 → 1
Vehicle 1: 1 → 13
Vehicle 1: 3 → 17
Vehicle 1: 10 → 3
Vehicle 1: 13 → 10
Vehicle 2: 0 → 2
Vehicle 2: 2 → 17
Vehicle 3: 0 → 17

=== Full Vehicle Routes ===
Vehicle 1: 0 → 1 → 13 → 10 → 3 → 0 (88<100)
Vehicle 2: 0 → 2 → 0 (13<100)
Vehicle 3: 0 → 0 (0<100)
Arc used by MRT line: y variables:
MRT used: 10 → 11
MRT used: 13 → 12
Customer assigment to PL: u variables:
4 13
5 12
6 13
7 13
8 11
9 11
Node is served by regular vehicle: g variables:
1
2
3
10
13
Customer assigment to Home delivery: gm variables:
1
2
3
Node total demands: ntd variables:
1 13 1
2 13 1
3 12 1
7 0 0
8 0 0
9 0 0
16 0 0
10 16 1
11 0 0
12 0 0
13 47 1
14 0 0
15 0 0
Customer's demand delivered to PL: l variables:
4
5
6
7
8
9
Lockers load <= capacity:
0 <= 90
0 <= 83
16 <= 100
2 <= 70
45 <= 87
0 <= 73
0 <= 71
